9,1,3,1,11,1,2,2,3,3,15,3,4,2,9,3,10,1,4,4,12,2,1,4,10,4,7,3,14,4,13,5,8,5;2,1,14,1,3,2,1,1,13,3,7,1,5,3,15,5,9,4,12,3,8,3,6,5,11,5;8,1,5,1,15,2,14,2,13,2,6,3,11,4,12,1,4,3,1,2,2,5,10,5,7,4,9,5;6,1,13,1,15,1,4,1,9,2,11,3,6,4,2,4,3,5,1,3,10,3,5,4,8,2,14,5,12,5,7,5;6,2,5,2,11,2,2,3,13,4,3,4,15,4,7,2,10,2,4,5,14,3,1,5,12,4,5,5,8,4;
